decision_x1=[0,2];
decision_x2=[0,2];
decision_x3=[0,2];
decision_x4=[0,2];
decision_x5=[0,2];
random_y1=[0,2];
constraint_x2_x1=[
0,0,5.4|
0,1,6.3|
0,2,8.3|
1,0,5.9|
1,1,1.9|
1,2,6.2|
2,0,9.6|
2,1,7.3|
2,2,5.6|
];
constraint_x3_x1=[
0,0,9.9|
0,1,0.42|
0,2,8.1|
1,0,6.6|
1,1,7.2|
1,2,5.3|
2,0,7.5|
2,1,3.8|
2,2,8.3|
];
constraint_x4_x1=[
0,0,4.6|
0,1,3.3|
0,2,8.8|
1,0,6.4|
1,1,0.09|
1,2,2|
2,0,5.9|
2,1,1.3|
2,2,4.3|
];
constraint_x4_x2=[
0,0,5.4|
0,1,0.7|
0,2,1.4|
1,0,0.86|
1,1,5.4|
1,2,4.8|
2,0,2.7|
2,1,1.7|
2,2,5.1|
];
constraint_x5_x1=[
0,0,4.4|
0,1,0.98|
0,2,5.1|
1,0,4.9|
1,1,9|
1,2,9.4|
2,0,2.9|
2,1,5.7|
2,2,1|
];
constraint_x1_y1=[
0,0,4.7|
0,1,5.1|
0,2,3.1|
1,0,8.6|
1,1,0.063|
1,2,0.66|
2,0,9.4|
2,1,8|
2,2,7.6|
];
initial_distribution_y1=[0.52,0.029,0.45];
transition_y1=[
0.5,0.32,0.18|
0.54,0.12,0.34|
0.15,0.55,0.29|
];
